p td 24 43
2 1
3 1
5 4
6 3
6 2
9 5
10 7
10 9
11 1
13 1
13 8
13 5
14 5
15 14
15 1
16 3
16 9
16 11
17 15
17 7
17 1
19 4
19 6
19 18
19 10
20 14
21 13
21 2
21 7
21 4
21 14
22 18
22 17
22 11
23 4
23 21
23 8
23 12
23 9
23 11
24 18
24 11
24 1
